examples/dis/graph-20-53.param
$ generated by rg.pl with seed 53
letting n be 20
$ 33 edges
letting E be {{1,13},{4,10},{5,19},{3,4},{3,16},{2,5},{3,6},{12,18},{11,20},{11,19},{1,15},{9,14},{11,17},{14,17},{6,20},{2,19},{1,12},{17,20},{17,19},{1,10},{1,6},{5,16},{7,11},{6,14},{9,20},{19,20},{7,9},{18,19},{12,14},{10,20},{16,18},{7,18},{2,18}}
